     Program PWSCF v.6.1 (svn rev. 13369) starts on 22Jan2018 at 12:27:33

     Current dimensions of program PWSCF are:
     Max number of different atomic species (ntypx) = 10
     Max number of k-points (npk) =  40000
     Max angular momentum in pseudopotentials (lmaxx) =  3

     Subspace diagonalization in iterative solution of the eigenvalue problem:
     a serial algorithm will be used

     bravais-lattice index     =            2
     lattice parameter (alat)  =      12.5200  a.u.
     unit-cell volume          =     490.6288 (a.u.)^3
     number of atoms/cell      =            2
     number of atomic types    =            1
     number of electrons       =        28.00
     number of Kohn-Sham states=           14
     kinetic-energy cutoff     =      50.0000  Ry
     charge density cutoff     =     400.0000  Ry
     convergence threshold     =      1.0E-10
     mixing beta               =       0.7000
     number of iterations used =            8  plain     mixing
     Exchange-correlation      =  SLA  PW   PBX  PBC ( 1  4  3  4 0 0)
     nstep                     =           50

     celldm(1)=  12.520000  celldm(2)=   0.000000  celldm(3)=   0.000000
     celldm(4)=   0.000000  celldm(5)=   0.000000  celldm(6)=   0.000000

     crystal axes: (cart. coord. in units of alat)
               a(1) = (  -0.500000   0.000000   0.500000 )
               a(2) = (   0.000000   0.500000   0.500000 )
               a(3) = (  -0.500000   0.500000   0.000000 )

     reciprocal axes: (cart. coord. in units 2 pi/alat)
               b(1) = ( -1.000000 -1.000000  1.000000 )
               b(2) = (  1.000000  1.000000  1.000000 )
               b(3) = ( -1.000000  1.000000 -1.000000 )

     PseudoPot. # 1 for Sn read from file:
     /home/s1333534/quantum_espresso/qe-6.1/pseudo/sn_pbe_v1.4.uspp.F.UPF
     MD5 check sum: 469debedee59599fedebd795477fea03
     Pseudo is Ultrasoft + core correction, Zval = 14.0
     Generated by new atomic code, or converted to UPF format
     Using radial grid of  891 points,  6 beta functions with:
                l(1) =   0
                l(2) =   0
                l(3) =   1
                l(4) =   1
                l(5) =   2
                l(6) =   2
     Q(r) pseudized with  8 coefficients,  rinner =    1.350   1.350   1.350
                                                       1.350   1.350

     atomic species   valence    mass     pseudopotential
        Sn            14.00   118.71000     Sn( 1.00)

     48 Sym. Ops., with inversion, found (24 have fractional translation)

   Cartesian axes

     site n.     atom                  positions (alat units)
         1           Sn  tau(   1) = (   0.0000000   0.0000000   0.0000000  )
         2           Sn  tau(   2) = (  -0.2500000   0.2500000   0.2500000  )

     number of k points=   408

     Number of k-points >= 100: set verbosity='high' to print them.

     Initial potential from superposition of free atoms

     starting charge   25.99991, renormalised to   28.00000
     Starting wfc are   18 randomized atomic wfcs

     Self-consistent Calculation

     iteration #  1     ecut=    50.00 Ry     beta=0.70
     Davidson diagonalization with overlap
     ethr =  1.00E-02,  avg # of iterations =  2.7

     total energy              =    -317.48646758 Ry
     Harris-Foulkes estimate   =    -319.54657434 Ry
     estimated scf accuracy    <       2.51010020 Ry

[...]

     End of self-consistent calculation

     Number of k-points >= 100: set verbosity='high' to print the bands.

     highest occupied level (ev):     7.1484

!    total energy              =    -318.48975497 Ry
     Harris-Foulkes estimate   =    -318.48975497 Ry
     estimated scf accuracy    <          7.0E-11 Ry

     The total energy is the sum of the following terms:

     one-electron contribution =    -161.00683893 Ry
     hartree contribution      =      97.15130552 Ry
     xc contribution           =     -85.97409110 Ry
     ewald contribution        =    -168.66013046 Ry

     convergence has been achieved in   8 iterations

     Forces acting on atoms (cartesian axes, Ry/au):

     atom    1 type  1   force =     0.00000000    0.00000000    0.00000000
     atom    2 type  1   force =     0.00000000    0.00000000    0.00000000

     Total force =     0.000000     Total SCF correction =     0.000000

     Computing stress (Cartesian axis) and pressure

          total   stress  (Ry/bohr**3)                   (kbar)     P=  -13.21
  -0.00008978   0.00000000  -0.00000000        -13.21      0.00     -0.00
   0.00000000  -0.00008978   0.00000000          0.00    -13.21      0.00
  -0.00000000   0.00000000  -0.00008978         -0.00      0.00    -13.21

     BFGS Geometry Optimization

     number of scf cycles    =   1
     number of bfgs steps    =   0

     enthalpy new            =    -318.4897549682 Ry

     new trust radius        =       0.0099431696 bohr
     new conv_thr            =            1.0E-10 Ry

     new unit-cell volume =    487.33252 a.u.^3 (    72.21523 Ang^3 )
     density =      5.45931 g/cm^3

CELL_PARAMETERS (alat= 12.52000000)
  -0.498877753   0.000000000   0.498877753
  -0.000000000   0.498877753   0.498877753
  -0.498877753   0.498877753   0.000000000

ATOMIC_POSITIONS (crystal)
Sn       0.000000000   0.000000000   0.000000000
Sn       0.250000000   0.250000000   0.250000000

     Writing output data file sn.alpha.relax.save
     NEW-OLD atomic charge density approx. for the potential
     extrapolated charge   27.82414, renormalised to   28.00000

[...]

     enthalpy old            =    -318.4897549682 Ry
     enthalpy new            =    -318.4900195413 Ry

     CASE: enthalpy_new < enthalpy_old

[...]

     number of scf cycles    =   4
     number of bfgs steps    =   3

     enthalpy old            =    -318.4902983976 Ry
     enthalpy new            =    -318.4904382132 Ry

     CASE: enthalpy_new < enthalpy_old

     new trust radius        =       0.0011269527 bohr
     new conv_thr            =            1.0E-12 Ry

     new unit-cell volume =    475.85072 a.u.^3 (    70.51380 Ang^3 )
     density =      5.59104 g/cm^3

[...]

ATOMIC_POSITIONS (crystal)
Sn       0.000000000  -0.000000000  -0.000000000
Sn       0.250000000   0.250000000   0.250000000

     Writing output data file sn.alpha.relax.save
     NEW-OLD atomic charge density approx. for the potential
     extrapolated charge   28.02015, renormalised to   28.00000

[...]

     bfgs converged in   5 scf cycles and   4 bfgs steps
     (criteria: energy <  1.0E-04 Ry, force <  1.0E-03Ry/Bohr, cell <  3.0E-01kbar)

     End of BFGS Geometry Optimization

     Final enthalpy =    -318.4904386582 Ry
Begin final coordinates
     new unit-cell volume =    475.85072 a.u.^3 (    70.51380 Ang^3 )
     density =      5.59104 g/cm^3

CELL_PARAMETERS (alat= 12.52000000)
  -0.494928636   0.000000000   0.494928636
  -0.000000000   0.494928636   0.494928636
  -0.494928636   0.494928636   0.000000000

ATOMIC_POSITIONS (crystal)
Sn       0.000000000  -0.000000000  -0.000000000
Sn       0.250000000   0.250000000   0.250000000
End final coordinates

     A final scf calculation at the relaxed structure.
     The G-vectors are recalculated for the final unit cell
     Results may differ from those at the preceding step.

     bravais-lattice index     =            2
     lattice parameter (alat)  =      12.5200  a.u.
     unit-cell volume          =     475.8507 (a.u.)^3
     number of atoms/cell      =            2
     number of atomic types    =            1
     number of electrons       =        28.00
     number of Kohn-Sham states=           14
     kinetic-energy cutoff     =      50.0000  Ry
     charge density cutoff     =     400.0000  Ry
     convergence threshold     =      1.0E-12
     mixing beta               =       0.7000
     number of iterations used =            8  plain     mixing
     Exchange-correlation      =  SLA  PW   PBX  PBC ( 1  4  3  4 0 0)

     celldm(1)=  12.520000  celldm(2)=   0.000000  celldm(3)=   0.000000
     celldm(4)=   0.000000  celldm(5)=   0.000000  celldm(6)=   0.000000

     crystal axes: (cart. coord. in units of alat)
               a(1) = (  -0.494929   0.000000   0.494929 )
               a(2) = (  -0.000000   0.494929   0.494929 )
               a(3) = (  -0.494929   0.494929   0.000000 )

     reciprocal axes: (cart. coord. in units 2 pi/alat)
               b(1) = ( -1.010247 -1.010247  1.010247 )
               b(2) = (  1.010247  1.010247  1.010247 )
               b(3) = ( -1.010247  1.010247 -1.010247 )

     PseudoPot. # 1 for Sn read from file:
     /home/s1333534/quantum_espresso/qe-6.1/pseudo/sn_pbe_v1.4.uspp.F.UPF
     MD5 check sum: 469debedee59599fedebd795477fea03
     Pseudo is Ultrasoft + core correction, Zval = 14.0
     Generated by new atomic code, or converted to UPF format
     Using radial grid of  891 points,  6 beta functions with:
                l(1) =   0
                l(2) =   0
                l(3) =   1
                l(4) =   1
                l(5) =   2
                l(6) =   2
     Q(r) pseudized with  8 coefficients,  rinner =    1.350   1.350   1.350
                                                       1.350   1.350

     atomic species   valence    mass     pseudopotential
        Sn            14.00   118.71000     Sn( 1.00)

     48 Sym. Ops., with inversion, found (24 have fractional translation)

   Cartesian axes

     site n.     atom                  positions (alat units)
         1           Sn  tau(   1) = (  -0.0000000  -0.0000000   0.0000000  )
         2           Sn  tau(   2) = (  -0.2474643   0.2474643   0.2474643  )

     number of k points=   408

     Number of k-points >= 100: set verbosity='high' to print them.

     Initial potential from superposition of free atoms

     starting charge   25.99991, renormalised to   28.00000
     Starting wfc are   18 randomized atomic wfcs

     Writing output data file sn.alpha.relax.save

     Self-consistent Calculation

[...]

     total energy              =    -318.48875063 Ry
     Harris-Foulkes estimate   =    -318.48875063 Ry
     estimated scf accuracy    <          4.4E-12 Ry

     iteration # 11     ecut=    50.00 Ry     beta=0.70
     Davidson diagonalization with overlap
     ethr =  1.00E-13,  avg # of iterations =  1.0

     End of self-consistent calculation

     Number of k-points >= 100: set verbosity='high' to print the bands.

     highest occupied level (ev):     7.5176

!    total energy              =    -318.48875063 Ry
     Harris-Foulkes estimate   =    -318.48875063 Ry
     estimated scf accuracy    <          7.6E-14 Ry

     The total energy is the sum of the following terms:

     one-electron contribution =    -158.18561565 Ry
     hartree contribution      =      96.08839923 Ry
     xc contribution           =     -86.00320119 Ry
     ewald contribution        =    -170.38833302 Ry

     convergence has been achieved in  11 iterations

     Forces acting on atoms (cartesian axes, Ry/au):

     atom    1 type  1   force =     0.00000000    0.00000000    0.00000000
     atom    2 type  1   force =     0.00000000    0.00000000   -0.00000000

     Total force =     0.000000     Total SCF correction =     0.000000

     Computing stress (Cartesian axis) and pressure

          total   stress  (Ry/bohr**3)                   (kbar)     P=   -1.13
  -0.00000768  -0.00000000  -0.00000000         -1.13     -0.00     -0.00
  -0.00000000  -0.00000768   0.00000000         -0.00     -1.13      0.00
   0.00000000   0.00000000  -0.00000768          0.00      0.00     -1.13

     Writing output data file sn.alpha.relax.save

     General routines

     Parallel routines

   This run was terminated on:  12:52:52  22Jan2018

   JOB DONE.