     Program PWSCF v.6.1 (svn rev. 13369) starts on 22Jan2018 at 12:20:10

     Current dimensions of program PWSCF are:
     Max number of different atomic species (ntypx) = 10
     Max number of k-points (npk) =  40000
     Max angular momentum in pseudopotentials (lmaxx) =  3

     Subspace diagonalization in iterative solution of the eigenvalue problem:
     a serial algorithm will be used

   Info: using nr1, nr2, nr3 values from input

     bravais-lattice index     =            0
     lattice parameter (alat)  =      11.2375  a.u.
     unit-cell volume          =     365.5987 (a.u.)^3
     number of atoms/cell      =            2
     number of atomic types    =            1
     number of electrons       =        28.00
     number of Kohn-Sham states=           18
     kinetic-energy cutoff     =      50.0000  Ry
     charge density cutoff     =     500.0000  Ry
     convergence threshold     =      1.0E-10
     mixing beta               =       0.7000
     number of iterations used =            8  plain     mixing
     Exchange-correlation      =  SLA  PW   PBX  PBC ( 1  4  3  4 0 0)
     nstep                     =           50

     celldm(1)=  11.237464  celldm(2)=   0.000000  celldm(3)=   0.000000
     celldm(4)=   0.000000  celldm(5)=   0.000000  celldm(6)=   0.000000

     crystal axes: (cart. coord. in units of alat)
               a(1) = (   0.986000   0.000000   0.000000 )
               a(2) = (   0.000000   0.986000   0.000000 )
               a(3) = (   0.493000   0.493000   0.265000 )

     reciprocal axes: (cart. coord. in units 2 pi/alat)
               b(1) = (  1.014199  0.000000 -1.886792 )
               b(2) = (  0.000000  1.014199 -1.886792 )
               b(3) = (  0.000000  0.000000  3.773585 )

     PseudoPot. # 1 for Sn read from file:
     /home/s1333534/quantum_espresso/qe-6.1/pseudo/sn_pbe_v1.4.uspp.F.UPF
     MD5 check sum: 469debedee59599fedebd795477fea03
     Pseudo is Ultrasoft + core correction, Zval = 14.0
     Generated by new atomic code, or converted to UPF format
     Using radial grid of  891 points,  6 beta functions with:
                l(1) =   0
                l(2) =   0
                l(3) =   1
                l(4) =   1
                l(5) =   2
                l(6) =   2
     Q(r) pseudized with  8 coefficients,  rinner =    1.350   1.350   1.350
                                                       1.350   1.350

     atomic species   valence    mass     pseudopotential
        Sn            14.00   118.71000     Sn( 1.00)

     16 Sym. Ops., with inversion, found (12 have fractional translation)

   Cartesian axes

     site n.     atom                  positions (alat units)
         1           Sn  tau(   1) = (   0.9860000   1.2325000   0.1987500  )
         2           Sn  tau(   2) = (   0.4930000   0.2465000   0.0662500  )

     number of k points=   687  Marzari-Vanderbilt smearing, width (Ry)=  0.0200

     Number of k-points >= 100: set verbosity='high' to print them.

     Initial potential from superposition of free atoms

     starting charge   25.99991, renormalised to   28.00000
     Starting wfc are   18 randomized atomic wfcs

     Self-consistent Calculation

     iteration #  1     ecut=    50.00 Ry     beta=0.70
     Davidson diagonalization with overlap
     ethr =  1.00E-02,  avg # of iterations =  3.4

     total energy              =    -317.56826676 Ry
     Harris-Foulkes estimate   =    -319.49692449 Ry
     estimated scf accuracy    <       2.36233326 Ry

[...]

     End of self-consistent calculation

     Number of k-points >= 100: set verbosity='high' to print the bands.

     the Fermi energy is    10.7696 ev

!    total energy              =    -318.48240289 Ry
     Harris-Foulkes estimate   =    -318.48240289 Ry
     estimated scf accuracy    <          4.9E-11 Ry

     The total energy is the sum of the following terms:

     one-electron contribution =    -111.02271227 Ry
     hartree contribution      =      75.98511411 Ry
     xc contribution           =     -86.02957650 Ry
     ewald contribution        =    -197.41539548 Ry
     smearing contrib. (-TS)   =       0.00016726 Ry

     convergence has been achieved in   7 iterations

     Forces acting on atoms (cartesian axes, Ry/au):

     atom    1 type  1   force =     0.00000000    0.00000000    0.00000000
     atom    2 type  1   force =     0.00000000    0.00000000    0.00000000

     Total force =     0.000000     Total SCF correction =     0.000000

     Computing stress (Cartesian axis) and pressure

          total   stress  (Ry/bohr**3)                   (kbar)     P=    1.29
   0.00000324   0.00000000  -0.00000000          0.48      0.00     -0.00
   0.00000000   0.00000324   0.00000000          0.00      0.48      0.00
  -0.00000000   0.00000000   0.00001976         -0.00      0.00      2.91

     BFGS Geometry Optimization

     number of scf cycles    =   1
     number of bfgs steps    =   0

     enthalpy new            =    -318.4824028867 Ry

     new trust radius        =       0.0018890635 bohr
     new conv_thr            =            1.0E-10 Ry

     new unit-cell volume =    365.83856 a.u.^3 (    54.21168 Ang^3 )
     density =      7.27233 g/cm^3

CELL_PARAMETERS (alat= 11.23746432)
   0.986079817   0.000000000  -0.000000000
   0.000000000   0.986079817   0.000000000
   0.493039909   0.493039909   0.265130906

ATOMIC_POSITIONS (crystal)
Sn       0.625000000   0.875000000   0.750000000
Sn       0.375000000   0.125000000   0.250000000

     Writing output data file sn.beta.relax.save
     NEW-OLD atomic charge density approx. for the potential
     extrapolated charge   28.01704, renormalised to   28.00000

[...]

     enthalpy old            =    -318.4824028867 Ry
     enthalpy new            =    -318.4824061653 Ry

     CASE: enthalpy_new < enthalpy_old

[...]

     Threshold (ethr) on eigenvalues was too large:
     Diagonalizing with lowered threshold

     Davidson diagonalization with overlap
     ethr =  7.42E-11,  avg # of iterations =  2.4

[...]

     number of scf cycles    =   5
     number of bfgs steps    =   4

     enthalpy old            =    -318.4824114666 Ry
     enthalpy new            =    -318.4824116841 Ry

     CASE: enthalpy_new < enthalpy_old

     new trust radius        =       0.0009104316 bohr
     new conv_thr            =            1.0E-12 Ry

     new unit-cell volume =    366.43699 a.u.^3 (    54.30036 Ang^3 )
     density =      7.26045 g/cm^3

[...]

ATOMIC_POSITIONS (crystal)
Sn       0.625000000   0.875000000   0.750000000
Sn       0.375000000   0.125000000   0.250000000

     Writing output data file sn.beta.relax.save
     NEW-OLD atomic charge density approx. for the potential
     extrapolated charge   27.99285, renormalised to   28.00000

[...]

     Threshold (ethr) on eigenvalues was too large:
     Diagonalizing with lowered threshold

     Davidson diagonalization with overlap
     ethr =  2.17E-08,  avg # of iterations =  1.0

[...]

     bfgs converged in   6 scf cycles and   5 bfgs steps
     (criteria: energy <  1.0E-04 Ry, force <  1.0E-03Ry/Bohr, cell <  3.0E-01kbar)

     End of BFGS Geometry Optimization

     Final enthalpy =    -318.4824119903 Ry
Begin final coordinates
     new unit-cell volume =    366.43699 a.u.^3 (    54.30036 Ang^3 )
     density =      7.26045 g/cm^3

CELL_PARAMETERS (alat= 11.23746432)
   0.985812512   0.000000000  -0.000000000
  -0.000000000   0.985812512  -0.000000000
   0.492906256   0.492906256   0.265708644

ATOMIC_POSITIONS (crystal)
Sn       0.625000000   0.875000000   0.750000000
Sn       0.375000000   0.125000000   0.250000000
End final coordinates

     A final scf calculation at the relaxed structure.
     The G-vectors are recalculated for the final unit cell
     Results may differ from those at the preceding step.

     bravais-lattice index     =            0
     lattice parameter (alat)  =      11.2375  a.u.
     unit-cell volume          =     366.4370 (a.u.)^3
     number of atoms/cell      =            2
     number of atomic types    =            1
     number of electrons       =        28.00
     number of Kohn-Sham states=           18
     kinetic-energy cutoff     =      50.0000  Ry
     charge density cutoff     =     500.0000  Ry
     convergence threshold     =      1.0E-12
     mixing beta               =       0.7000
     number of iterations used =            8  plain     mixing
     Exchange-correlation      =  SLA  PW   PBX  PBC ( 1  4  3  4 0 0)

     celldm(1)=  11.237464  celldm(2)=   0.000000  celldm(3)=   0.000000
     celldm(4)=   0.000000  celldm(5)=   0.000000  celldm(6)=   0.000000

     crystal axes: (cart. coord. in units of alat)
               a(1) = (   0.985813   0.000000  -0.000000 )
               a(2) = (  -0.000000   0.985813  -0.000000 )
               a(3) = (   0.492906   0.492906   0.265709 )

     reciprocal axes: (cart. coord. in units 2 pi/alat)
               b(1) = (  1.014392 -0.000000 -1.881760 )
               b(2) = ( -0.000000  1.014392 -1.881760 )
               b(3) = (  0.000000  0.000000  3.763521 )

     PseudoPot. # 1 for Sn read from file:
     /home/s1333534/quantum_espresso/qe-6.1/pseudo/sn_pbe_v1.4.uspp.F.UPF
     MD5 check sum: 469debedee59599fedebd795477fea03
     Pseudo is Ultrasoft + core correction, Zval = 14.0
     Generated by new atomic code, or converted to UPF format
     Using radial grid of  891 points,  6 beta functions with:
                l(1) =   0
                l(2) =   0
                l(3) =   1
                l(4) =   1
                l(5) =   2
                l(6) =   2
     Q(r) pseudized with  8 coefficients,  rinner =    1.350   1.350   1.350
                                                       1.350   1.350

     atomic species   valence    mass     pseudopotential
        Sn            14.00   118.71000     Sn( 1.00)

     16 Sym. Ops., with inversion, found (12 have fractional translation)

   Cartesian axes

     site n.     atom                  positions (alat units)
         1           Sn  tau(   1) = (   0.9858125   1.2322656   0.1992815  )
         2           Sn  tau(   2) = (   0.4929063   0.2464531   0.0664272  )

     number of k points=   687  Marzari-Vanderbilt smearing, width (Ry)=  0.0200

     Number of k-points >= 100: set verbosity='high' to print them.

     Initial potential from superposition of free atoms

     starting charge   25.99991, renormalised to   28.00000
     Starting wfc are   18 randomized atomic wfcs

     Writing output data file sn.beta.relax.save

     Self-consistent Calculation

     iteration #  1     ecut=    50.00 Ry     beta=0.70
     Davidson diagonalization with overlap
     c_bands:  1 eigenvalues not converged
     c_bands:  1 eigenvalues not converged
     c_bands:  1 eigenvalues not converged
     c_bands:  1 eigenvalues not converged
     c_bands:  1 eigenvalues not converged
     c_bands:  1 eigenvalues not converged
     c_bands:  1 eigenvalues not converged
     c_bands:  2 eigenvalues not converged
     c_bands:  1 eigenvalues not converged
     c_bands:  1 eigenvalues not converged
     c_bands:  1 eigenvalues not converged
     ethr =  1.00E-06,  avg # of iterations = 11.1

[...]

     total energy              =    -318.48254570 Ry
     Harris-Foulkes estimate   =    -318.48254570 Ry
     estimated scf accuracy    <          1.7E-12 Ry

     iteration #  9     ecut=    50.00 Ry     beta=0.70
     Davidson diagonalization with overlap
     ethr =  1.00E-13,  avg # of iterations =  1.0

     End of self-consistent calculation

     Number of k-points >= 100: set verbosity='high' to print the bands.

     the Fermi energy is    10.7347 ev

!    total energy              =    -318.48254570 Ry
     Harris-Foulkes estimate   =    -318.48254570 Ry
     estimated scf accuracy    <          2.0E-13 Ry

     The total energy is the sum of the following terms:

     one-electron contribution =    -111.25573939 Ry
     hartree contribution      =      76.06737084 Ry
     xc contribution           =     -86.02695830 Ry
     ewald contribution        =    -197.26739519 Ry
     smearing contrib. (-TS)   =       0.00017634 Ry

     convergence has been achieved in   9 iterations

     Forces acting on atoms (cartesian axes, Ry/au):

     atom    1 type  1   force =    -0.00000000   -0.00000000   -0.00000000
     atom    2 type  1   force =     0.00000000    0.00000000    0.00000000

     Total force =     0.000000     Total SCF correction =     0.000000

     Computing stress (Cartesian axis) and pressure

          total   stress  (Ry/bohr**3)                   (kbar)     P=   -0.03
  -0.00000076  -0.00000000  -0.00000000         -0.11     -0.00     -0.00
  -0.00000000  -0.00000076   0.00000000         -0.00     -0.11      0.00
  -0.00000000   0.00000000   0.00000094         -0.00      0.00      0.14

     Writing output data file sn.beta.relax.save

     General routines

     Parallel routines

   This run was terminated on:  13:43:21  22Jan2018

   JOB DONE.